c 3 - XORSAT
p cnf 20 80
-4 -15 -9 0
-4 15 9 0
4 -15 9 0
4 15 -9 0
-2 -17 -19 0
-2 17 19 0
2 -17 19 0
2 17 -19 0
-9 -10 -12 0
-9 10 12 0
9 -10 12 0
9 10 -12 0
3 8 10 0
-3 -8 10 0
-3 8 -10 0
3 -8 -10 0
5 17 20 0
-5 -17 20 0
-5 17 -20 0
5 -17 -20 0
-15 -16 -18 0
-15 16 18 0
15 -16 18 0
15 16 -18 0
-3 -7 -20 0
-3 7 20 0
3 -7 20 0
3 7 -20 0
-18 -20 -13 0
-18 20 13 0
18 -20 13 0
18 20 -13 0
5 11 12 0
-5 -11 12 0
-5 11 -12 0
5 -11 -12 0
-1 -12 -19 0
-1 12 19 0
1 -12 19 0
1 12 -19 0
-3 -6 -7 0
-3 6 7 0
3 -6 7 0
3 6 -7 0
4 14 18 0
-4 -14 18 0
-4 14 -18 0
4 -14 -18 0
-11 -14 -7 0
-11 14 7 0
11 -14 7 0
11 14 -7 0
11 17 13 0
-11 -17 13 0
-11 17 -13 0
11 -17 -13 0
-2 -13 -19 0
-2 13 19 0
2 -13 19 0
2 13 -19 0
5 10 16 0
-5 -10 16 0
-5 10 -16 0
5 -10 -16 0
-6 -9 -16 0
-6 9 16 0
6 -9 16 0
6 9 -16 0
-1 -8 -6 0
-1 8 6 0
1 -8 6 0
1 8 -6 0
-2 -14 -15 0
-2 14 15 0
2 -14 15 0
2 14 -15 0
-1 -4 -8 0
-1 4 8 0
1 -4 8 0
1 4 -8 0
